     Program PWSCF v.6.0 (svn rev. 13079) starts on 25Mar2020 at  9:17: 1

     Current dimensions of program PWSCF are:
     Max number of different atomic species (ntypx) = 10
     Max number of k-points (npk) =  40000
     Max angular momentum in pseudopotentials (lmaxx) =  3
               file C.pbe-n-kjpaw_psl.1.0.0.UPF: wavefunction(s)  2S 2P renormalized
               file Ge.pbe-dn-kjpaw_psl.1.0.0.UPF: wavefunction(s)  4S 4P 3D renormalized

     gamma-point specific algorithms are used

     Subspace diagonalization in iterative solution of the eigenvalue problem:
     a serial algorithm will be used

     bravais-lattice index     =            0
     lattice parameter (alat)  =      94.4858  a.u.
     unit-cell volume          =   35934.3127 (a.u.)^3
     number of atoms/cell      =           22
     number of atomic types    =            3
     number of electrons       =        86.00
     number of Kohn-Sham states=           52
     kinetic-energy cutoff     =      25.0000  Ry
     charge density cutoff     =     100.0000  Ry
     convergence threshold     =      1.0E-07
     mixing beta               =       0.3000
     number of iterations used =            8  plain     mixing
     Exchange-correlation      =  SLA  PW   PBX  PBC ( 1  4  3  4 0 0)

     celldm(1)=  94.485808  celldm(2)=   0.000000  celldm(3)=   0.000000
     celldm(4)=   0.000000  celldm(5)=   0.000000  celldm(6)=   0.000000

     crystal axes: (cart. coord. in units of alat)
               a(1) = (   1.000000   0.000000   0.000000 )
               a(2) = (   0.000000   0.500000   0.000000 )
               a(3) = (   0.000000   0.000000   0.085200 )

     reciprocal axes: (cart. coord. in units 2 pi/alat)
               b(1) = (  1.000000  0.000000  0.000000 )
               b(2) = (  0.000000  2.000000  0.000000 )
               b(3) = (  0.000000  0.000000 11.737089 )

     PseudoPot. # 1 for  C read from file:
     /home/lucia/q-e-qe-6.5/pseudo/C.pbe-n-kjpaw_psl.1.0.0.UPF
     MD5 check sum: 5d2aebdfa2cae82b50a7e79e9516da0f
     Pseudo is Projector augmented-wave + core cor, Zval =  4.0
     Generated using "atomic" code by A. Dal Corso  v.5.1
     Shape of augmentation charge: PSQ
     Using radial grid of 1073 points,  4 beta functions with:
                l(1) =   0
                l(2) =   0
                l(3) =   1
                l(4) =   1
     Q(r) pseudized with 0 coefficients

     PseudoPot. # 2 for H  read from file:
     /home/lucia/q-e-qe-6.5/pseudo/H_ONCV_PBE-1.0.oncvpsp.upf
     MD5 check sum: 1790becc920ee074925cf490c71280fe
     Pseudo is Norm-conserving, Zval =  1.0
     Generated using ONCVPSP code by D. R. Hamann
     Using radial grid of 1166 points,  2 beta functions with:
                l(1) =   0
                l(2) =   0

     PseudoPot. # 3 for Ge read from file:
     /home/lucia/q-e-qe-6.5/pseudo/Ge.pbe-dn-kjpaw_psl.1.0.0.UPF
     MD5 check sum: cb5c0e7a9b8ef38526cd9bce323b6a2b
     Pseudo is Projector augmented-wave + core cor, Zval = 14.0
     Generated using "atomic" code by A. Dal Corso  v.6.3
     Shape of augmentation charge: PSQ
     Using radial grid of 1207 points,  6 beta functions with:
                l(1) =   0
                l(2) =   0
                l(3) =   1
                l(4) =   1
                l(5) =   2
                l(6) =   2
     Q(r) pseudized with 0 coefficients

     atomic species   valence    mass     pseudopotential
        C              4.00    12.01070      C( 1.00)
        H              1.00     1.00784     H ( 1.00)
        Ge            14.00    72.64000     Ge( 1.00)

      2 Sym. Ops. (no inversion) found

   Cartesian axes

     site n.     atom                  positions (alat units)
         1           H   tau(   1) = (  -0.0091695   0.0000000  -0.0041060  )
         2           H   tau(   2) = (  -0.0075273   0.0000000   0.0320782  )
         3           C   tau(   3) = (   0.0113522   0.0000000   0.0430306  )
         4           C   tau(   4) = (   0.0104852   0.0000000   0.0715209  )
         5           C   tau(   5) = (   0.0356342   0.0000000  -0.0005392  )
         6           C   tau(   6) = (   0.0370485   0.0000000   0.0297126  )
         7           C   tau(   7) = (   0.0620935   0.0000000   0.0426656  )
         8           C   tau(   8) = (   0.0602470   0.0000000   0.0718257  )
         9           C   tau(   9) = (   0.0848042   0.0000000   0.0002999  )
        10           C   tau(  10) = (   0.0891507   0.0000000   0.0282215  )
        11           Ge  tau(  11) = (   0.1179079   0.0000000   0.0717179  )
        12           C   tau(  12) = (   0.1173310   0.0000000   0.0353109  )
        13           C   tau(  13) = (   0.1510183   0.0000000   0.0006000  )
        14           C   tau(  14) = (   0.1455504   0.0000000   0.0283528  )
        15           C   tau(  15) = (   0.1729371   0.0000000   0.0430120  )
        16           C   tau(  16) = (   0.1756413   0.0000000   0.0721742  )
        17           C   tau(  17) = (   0.2002280   0.0000000  -0.0001074  )
        18           C   tau(  18) = (   0.1979224   0.0000000   0.0300871  )
        19           C   tau(  19) = (   0.2235292   0.0000000   0.0433245  )
        20           C   tau(  20) = (   0.2253628   0.0000000   0.0717511  )
        21           H   tau(  21) = (   0.2451567   0.0000000  -0.0042698  )
        22           H   tau(  22) = (   0.2419701   0.0000000   0.0317371  )

     number of k points=     1  gaussian smearing, width (Ry)=  0.0200
                       cart. coord. in units 2pi/alat
        k(    1) = (   0.0000000   0.0000000   0.0000000), wk =   2.0000000

     Check: negative/imaginary core charge=   -0.000104    0.000000

     Initial potential from superposition of free atoms
     Check: negative starting charge=   -0.012539

     starting charge   85.99849, renormalised to   86.00000

     negative rho (up, down):  1.254E-02 0.000E+00
     Starting wfc are   81 randomized atomic wfcs
     Checking if some PAW data can be deallocated...

     Self-consistent Calculation

     iteration #  1     ecut=    25.00 Ry     beta=0.30
     Davidson diagonalization with overlap
     ethr =  1.00E-02,  avg # of iterations =  6.0

     negative rho (up, down):  7.876E-02 0.000E+00

     total energy              =    -632.41267235 Ry
     Harris-Foulkes estimate   =    -633.38711971 Ry
     estimated scf accuracy    <       2.58310787 Ry

[...]

     total energy              =    -632.36994953 Ry
     Harris-Foulkes estimate   =    -632.36994926 Ry
     estimated scf accuracy    <       0.00000034 Ry

     iteration # 13     ecut=    25.00 Ry     beta=0.30
     Davidson diagonalization with overlap
     ethr =  3.98E-10,  avg # of iterations =  3.0

     negative rho (up, down):  2.437E-01 0.000E+00

     End of self-consistent calculation

          k = 0.0000 0.0000 0.0000 ( 38039 PWs)   bands (ev):

   -29.8057 -29.6766 -29.6076 -29.5924 -29.5343 -22.5963 -22.4030 -21.2049
   -20.3778 -18.9836 -17.8852 -17.2291 -17.1833 -16.2479 -16.1335 -15.9028
   -15.1060 -15.0169 -13.5690 -13.4045 -13.1072 -12.9741 -12.3578 -11.9407
   -11.3997 -11.2122 -10.6973 -10.5595 -10.3720 -10.3429  -9.1425  -8.9580
    -8.4771  -8.1973  -8.1305  -7.7430  -7.0112  -6.5670  -5.8317  -5.3803
    -5.2622  -5.1687  -3.7413  -3.0118  -2.5869  -2.2554  -2.1513  -1.9518
    -1.9401  -1.8826  -1.6592  -1.5924

     the Fermi energy is    -3.3766 ev

!    total energy              =    -632.36995004 Ry
     Harris-Foulkes estimate   =    -632.36994956 Ry
     estimated scf accuracy    <       0.00000007 Ry

     The total energy is the sum of the following terms:

     one-electron contribution =   -4874.58022947 Ry
     hartree contribution      =    2450.26367146 Ry
     xc contribution           =    -120.33104025 Ry
     ewald contribution        =    2133.97500857 Ry
     one-center paw contrib.   =    -221.69361424 Ry
     smearing contrib. (-TS)   =      -0.00374611 Ry

     convergence has been achieved in  13 iterations

     Writing output data file pwscf.save

     General routines

     Parallel routines

   This run was terminated on:   9:24:30  25Mar2020

   JOB DONE.